p tw 130 698
1 5
1 25
1 26
1 27
1 52
1 60
1 61
1 62
1 70
1 74
1 75
1 76
1 77
1 78
1 79
1 80
1 81
1 82
1 83
1 84
1 85
1 86
1 87
1 88
1 89
1 90
1 91
1 92
1 93
2 5
2 18
2 19
2 26
2 27
2 55
2 56
2 57
2 61
2 62
2 71
2 74
2 75
2 77
2 78
2 79
2 80
2 81
2 82
2 84
2 85
2 86
2 87
2 89
2 90
2 92
2 93
3 4
3 6
3 7
3 13
3 14
3 18
3 26
3 27
3 56
3 58
3 61
3 62
3 82
3 85
3 87
3 93
3 129
3 130
4 5
4 6
4 7
4 13
4 14
4 18
4 19
4 26
4 56
4 57
4 60
4 61
4 72
4 73
4 76
4 91
4 117
4 119
4 129
4 130
5 60
5 76
5 91
6 13
6 14
6 57
6 62
7 13
7 14
7 19
7 27
8 25
8 26
8 27
8 36
8 60
8 61
8 62
8 66
8 74
8 75
8 76
8 77
8 78
8 79
8 80
8 81
8 82
8 83
8 84
8 85
8 86
8 87
8 88
8 89
8 90
8 91
8 92
8 93
9 25
9 26
9 27
9 44
9 60
9 61
9 62
9 68
9 74
9 75
9 76
9 77
9 78
9 79
9 80
9 81
9 82
9 83
9 84
9 85
9 86
9 87
9 88
9 89
9 90
9 91
9 92
9 93
10 18
10 19
10 26
10 27
10 39
10 56
10 57
10 61
10 62
10 67
10 74
10 75
10 77
10 78
10 79
10 80
10 81
10 82
10 84
10 85
10 86
10 87
10 89
10 90
10 92
10 93
11 15
11 16
11 17
11 18
11 19
11 20
11 24
11 25
11 26
11 27
11 31
11 56
11 57
11 58
11 60
11 61
11 62
11 63
11 65
11 74
11 75
11 76
11 77
11 78
11 79
11 80
11 81
11 82
11 83
11 84
11 85
11 86
11 87
11 88
11 89
11 90
11 91
11 92
11 93
12 18
12 19
12 26
12 27
12 47
12 56
12 57
12 61
12 62
12 69
12 74
12 75
12 77
12 78
12 79
12 80
12 81
12 82
12 84
12 85
12 86
12 87
12 89
12 90
12 92
12 93
13 14
13 26
13 61
14 26
14 61
15 16
15 17
15 21
16 32
16 40
16 48
16 56
16 57
16 58
16 94
16 101
16 120
17 18
17 19
17 20
17 21
18 19
18 20
18 26
18 27
18 31
18 33
18 39
18 41
18 47
18 49
18 55
18 60
18 64
18 94
18 97
18 102
18 108
18 116
18 121
18 127
19 20
19 26
19 27
19 31
19 33
19 39
19 41
19 47
19 49
19 55
19 60
19 64
19 94
19 97
19 102
19 108
19 116
19 121
19 127
20 33
20 41
20 49
20 61
20 62
20 94
20 102
20 121
21 22
21 23
22 23
22 24
22 28
23 34
23 35
23 42
23 43
23 50
23 51
23 60
23 61
23 62
23 103
23 104
23 122
23 123
24 25
24 26
24 27
24 28
25 26
25 27
25 36
25 44
25 52
25 56
25 57
25 59
25 95
25 105
25 115
25 119
25 124
25 128
26 27
26 31
26 36
26 39
26 44
26 47
26 52
26 55
26 58
26 59
26 64
26 95
26 97
26 105
26 108
26 115
26 116
26 124
26 127
26 130
27 31
27 36
27 39
27 44
27 47
27 52
27 55
27 58
27 59
27 64
27 95
27 97
27 105
27 108
27 115
27 116
27 124
27 127
28 29
28 30
29 30
29 31
30 37
30 38
30 45
30 46
30 53
30 54
30 56
30 57
30 61
30 62
30 106
30 107
30 125
30 126
32 33
32 34
33 34
34 35
35 36
35 37
36 37
37 38
38 39
40 41
40 42
41 42
42 43
43 44
43 45
44 45
45 46
46 47
48 49
48 50
49 50
50 51
51 52
51 53
52 53
53 54
54 55
56 57
56 58
56 61
56 62
56 65
56 67
56 69
56 71
56 94
56 97
56 99
56 112
56 114
57 58
57 61
57 62
57 65
57 67
57 69
57 71
57 94
57 97
57 99
57 112
57 114
58 94
60 61
60 62
60 63
60 66
60 68
60 70
60 72
60 73
60 95
60 98
60 111
60 113
60 117
60 118
60 119
61 62
61 63
61 65
61 66
61 67
61 68
61 69
61 70
61 71
61 95
61 97
61 98
61 99
61 111
61 112
61 113
61 114
61 129
62 63
62 65
62 66
62 67
62 68
62 69
62 70
62 71
62 95
62 97
62 98
62 99
62 111
62 112
62 113
62 114
72 76
72 91
73 76
73 91
74 75
74 76
74 77
74 78
74 94
74 95
74 97
74 109
74 111
74 112
75 76
75 77
75 78
75 94
75 95
75 97
75 109
75 111
75 112
75 129
76 77
76 78
76 95
76 109
76 111
77 78
77 95
77 97
77 109
77 111
77 112
78 95
78 97
78 109
78 111
78 112
78 129
79 80
79 88
79 89
79 90
79 94
79 95
79 97
79 100
79 115
79 116
80 88
80 89
80 90
80 94
80 95
80 97
80 100
80 115
80 116
80 130
81 82
81 83
81 84
81 85
81 94
81 95
81 97
81 110
81 115
81 116
82 83
82 84
82 85
82 94
82 95
82 97
82 110
82 115
82 116
83 84
83 85
83 95
83 110
83 115
84 85
84 95
84 97
84 110
84 115
84 116
85 95
85 97
85 110
85 115
85 116
86 87
86 91
86 92
86 93
86 94
86 95
86 96
86 97
86 111
86 112
87 91
87 92
87 93
87 94
87 95
87 96
87 97
87 111
87 112
88 89
88 90
88 95
88 100
88 115
89 90
89 95
89 97
89 100
89 115
89 116
90 95
90 97
90 100
90 115
90 116
90 130
91 92
91 93
91 95
91 96
91 111
92 93
92 95
92 96
92 97
92 111
92 112
93 95
93 96
93 97
93 111
93 112
94 101
94 102
95 96
95 98
95 100
95 105
95 109
95 110
97 99
97 108
101 102
101 103
102 103
103 104
104 105
104 106
105 106
106 107
107 108
111 113
112 114
115 124
116 127
117 118
117 128
118 119
119 128
120 121
120 122
121 122
122 123
123 124
123 125
124 125
125 126
126 127
